
Gurobi 7.0.1 (linux64) logging started Sun Jul  2 22:11:17 2017

Optimize a model with 21691 rows, 14464 columns and 65448 nonzeros
Variable types: 0 continuous, 14464 integer (14464 binary)
Coefficient statistics:
  Matrix range     [1e+00, 9e+00]
  Objective range  [1e+00, 1e+00]
  Bounds range     [1e+00, 1e+00]
  RHS range        [1e+00, 5e+01]
Presolve removed 20815 rows and 13584 columns
Presolve time: 0.04s
Presolved: 876 rows, 880 columns, 6069 nonzeros
Variable types: 0 continuous, 880 integer (880 binary)

Root relaxation: objective 4.486111e+01, 58 iterations, 0.00 seconds

    Nodes    |    Current Node    |     Objective Bounds      |     Work
 Expl Unexpl |  Obj  Depth IntInf | Incumbent    BestBd   Gap | It/Node Time

     0     0   44.86111    0   19          -   44.86111      -     -    0s
     0     0   44.00000    0    2          -   44.00000      -     -    0s
     0     0   43.93333    0   11          -   43.93333      -     -    0s
     0     0   43.88889    0   11          -   43.88889      -     -    0s
     0     0   43.88889    0   11          -   43.88889      -     -    0s
     0     2   43.88889    0    8          -   43.88889      -     -    0s
   921    22 infeasible   16               -   24.00000      -   1.8    5s
  1784   269   24.00000   19    2          -   24.00000      -   1.6   10s
  2475   545   24.00000   23    -          -   24.00000      -   1.6   15s
  3288   755   24.00000   22    2          -   24.00000      -   1.5   21s
  3905   937   24.00000   23    3          -   24.00000      -   1.5   25s
  4532  1115   24.00000   19    -          -   24.00000      -   1.5   30s
  5496  1503   24.00000   27    3          -   24.00000      -   1.5   36s
H 5835  1636                      23.0000000   24.00000  4.35%   1.5   38s
  6192  1732   24.00000   29    -   23.00000   24.00000  4.35%   1.5   41s
  6780  1950   24.00000   36    -   23.00000   24.00000  4.35%   1.5   45s
  7795  2244   24.00000   48    -   23.00000   24.00000  4.35%   1.5   51s
  8525  2514     cutoff   48        23.00000   24.00000  4.35%   1.5   55s
  9529  2864 infeasible   47        23.00000   24.00000  4.35%   1.5   61s
 10253  3111   24.00000   48    -   23.00000   24.00000  4.35%   1.5   66s
 10636  3394   24.00000   17    4   23.00000   24.00000  4.35%   1.5   70s
 11666  3621   24.00000   47    -   23.00000   24.00000  4.35%   1.5   77s
 12073  3686 infeasible   47        23.00000   24.00000  4.35%   1.5   80s
 12953  4088 infeasible   47        23.00000   24.00000  4.35%   1.5   86s
 13701  4292   24.00000   46    -   23.00000   24.00000  4.35%   1.5   92s
 14158  4475   24.00000   32    2   23.00000   24.00000  4.35%   1.5   95s
 15039  4879   24.00000   38    -   23.00000   24.00000  4.35%   1.4  102s
 15535  4974   24.00000   46    -   23.00000   24.00000  4.35%   1.4  106s
 16032  5158 infeasible   46        23.00000   24.00000  4.35%   1.4  110s
 17111  5607     cutoff   45        23.00000   24.00000  4.35%   1.4  118s
 17630  5824   24.00000   42    2   23.00000   24.00000  4.35%   1.4  123s
 18208  6020   24.00000   48    -   23.00000   24.00000  4.35%   1.4  128s
 18610  6286 infeasible   48        23.00000   24.00000  4.35%   1.4  132s
 19286  6431   24.00000   48    -   23.00000   24.00000  4.35%   1.4  139s
 19863  6627 infeasible   48        23.00000   24.00000  4.35%   1.4  144s
 20306  6774   24.00000   35    -   23.00000   24.00000  4.35%   1.4  149s
 20882  6854   24.00000   35    -   23.00000   24.00000  4.35%   1.4  155s
 21503  7035 infeasible   46        23.00000   24.00000  4.35%   1.4  161s
 22106  7222   24.00000   48    -   23.00000   24.00000  4.35%   1.4  168s
 22759  7470 infeasible   48        23.00000   24.00000  4.35%   1.4  175s
 23276  7679     cutoff   48        23.00000   24.00000  4.35%   1.4  181s
 23984  7855   24.00000   47    -   23.00000   24.00000  4.35%   1.4  188s
 24608  8053 infeasible   47        23.00000   24.00000  4.35%   1.4  196s
 25285  8295   24.00000   47    -   23.00000   24.00000  4.35%   1.4  204s
 25989  8522 infeasible   47        23.00000   24.00000  4.35%   1.4  212s
